p cnf 324 1
324 0
w 1 0.276436
w 2 1 1
w 2 -1 0
w 3 2 1
w 3 -2 0
w 4 3 0.980407
w 4 -3 0.454254
w 5 4 0.389179
w 5 -4 0.200356
w 6 5 0
w 6 -5 1
w 7 6 0
w 7 -6 1
w 8 7 0.246415
w 8 -7 0.66285
w 9 8 1
w 9 -8 0
w 10 9 0.668658
w 10 -9 0.0472446
w 11 10 0.0385319
w 11 -10 0.291105
w 12 11 0
w 12 -11 1
w 13 12 0.199785
w 13 -12 0.854401
w 14 13 1
w 14 -13 0
w 15 14 0
w 15 -14 1
w 16 15 1
w 16 -15 0
w 17 16 1
w 17 -16 0
w 18 17 0.814974
w 18 -17 0.822453
w 19 1 0.7607
w 19 -1 0.830169
w 20 19 2 0.642969
w 20 19 -2 0.0765838
w 20 -19 2 0.35855
w 20 -19 -2 0.966181
w 21 20 3 0.177715
w 21 20 -3 0.634839
w 21 -20 3 0.022822
w 21 -20 -3 0.866952
w 22 21 4 0.313927
w 22 21 -4 0.00901344
w 22 -21 4 0.235636
w 22 -21 -4 0.197326
w 23 22 5 0
w 23 22 -5 1
w 23 -22 5 1
w 23 -22 -5 0
w 24 23 6 0.716366
w 24 23 -6 0.423902
w 24 -23 6 0.228343
w 24 -23 -6 0.338463
w 25 24 7 1
w 25 24 -7 0
w 25 -24 7 1
w 25 -24 -7 1
w 26 25 8 0.939738
w 26 25 -8 0.446986
w 26 -25 8 0.0676688
w 26 -25 -8 0.298288
w 27 26 9 0
w 27 26 -9 1
w 27 -26 9 1
w 27 -26 -9 0
w 28 27 10 0
w 28 27 -10 0
w 28 -27 10 1
w 28 -27 -10 0
w 29 28 11 0.560766
w 29 28 -11 0.0470499
w 29 -28 11 0.934483
w 29 -28 -11 0.109289
w 30 29 12 0.737031
w 30 29 -12 0.825655
w 30 -29 12 0.954148
w 30 -29 -12 0.965375
w 31 30 13 0
w 31 30 -13 1
w 31 -30 13 0
w 31 -30 -13 0
w 32 31 14 0.31612
w 32 31 -14 0.452946
w 32 -31 14 0.259695
w 32 -31 -14 0.383788
w 33 32 15 0.672863
w 33 32 -15 0.427035
w 33 -32 15 0.227236
w 33 -32 -15 0.720869
w 34 33 16 1
w 34 33 -16 1
w 34 -33 16 0
w 34 -33 -16 0
w 35 34 17 0
w 35 34 -17 1
w 35 -34 17 1
w 35 -34 -17 1
w 36 35 18 0.976555
w 36 35 -18 0.121934
w 36 -35 18 0.417869
w 36 -35 -18 0.930703
w 37 19 0
w 37 -19 1
w 38 37 20 1
w 38 37 -20 0
w 38 -37 20 1
w 38 -37 -20 0
w 39 38 21 0
w 39 38 -21 1
w 39 -38 21 1
w 39 -38 -21 1
w 40 39 22 0.0339646
w 40 39 -22 0.144498
w 40 -39 22 0.562138
w 40 -39 -22 0.527067
w 41 40 23 0.00438413
w 41 40 -23 0.400166
w 41 -40 23 0.636847
w 41 -40 -23 0.403644
w 42 41 24 0.119771
w 42 41 -24 0.849954
w 42 -41 24 0.235488
w 42 -41 -24 0.711985
w 43 42 25 0.357421
w 43 42 -25 0.129855
w 43 -42 25 0.757212
w 43 -42 -25 0.44473
w 44 43 26 0.957085
w 44 43 -26 0.540731
w 44 -43 26 0.618864
w 44 -43 -26 0.670167
w 45 44 27 0
w 45 44 -27 0
w 45 -44 27 0
w 45 -44 -27 1
w 46 45 28 0.459116
w 46 45 -28 0.482901
w 46 -45 28 0.897953
w 46 -45 -28 0.0212532
w 47 46 29 1
w 47 46 -29 1
w 47 -46 29 0
w 47 -46 -29 0
w 48 47 30 0
w 48 47 -30 0
w 48 -47 30 0
w 48 -47 -30 1
w 49 48 31 1
w 49 48 -31 0
w 49 -48 31 1
w 49 -48 -31 1
w 50 49 32 0.820043
w 50 49 -32 0.839089
w 50 -49 32 0.541805
w 50 -49 -32 0.49021
w 51 50 33 0
w 51 50 -33 1
w 51 -50 33 0
w 51 -50 -33 1
w 52 51 34 1
w 52 51 -34 1
w 52 -51 34 0
w 52 -51 -34 1
w 53 52 35 0.412383
w 53 52 -35 0.735749
w 53 -52 35 0.839941
w 53 -52 -35 0.841665
w 54 53 36 0.2092
w 54 53 -36 0.120901
w 54 -53 36 0.492674
w 54 -53 -36 0.290445
w 55 37 0
w 55 -37 1
w 56 55 38 0.089603
w 56 55 -38 0.64466
w 56 -55 38 0.424485
w 56 -55 -38 0.909646
w 57 56 39 0
w 57 56 -39 1
w 57 -56 39 1
w 57 -56 -39 0
w 58 57 40 0.678655
w 58 57 -40 0.182848
w 58 -57 40 0.806118
w 58 -57 -40 0.0441481
w 59 58 41 1
w 59 58 -41 1
w 59 -58 41 0
w 59 -58 -41 1
w 60 59 42 0.55986
w 60 59 -42 0.214325
w 60 -59 42 0.684942
w 60 -59 -42 0.556328
w 61 60 43 0
w 61 60 -43 1
w 61 -60 43 1
w 61 -60 -43 1
w 62 61 44 1
w 62 61 -44 0
w 62 -61 44 1
w 62 -61 -44 1
w 63 62 45 0.606288
w 63 62 -45 0.431592
w 63 -62 45 0.29599
w 63 -62 -45 0.956389
w 64 63 46 0
w 64 63 -46 0
w 64 -63 46 1
w 64 -63 -46 0
w 65 64 47 0.7479
w 65 64 -47 0.449688
w 65 -64 47 0.461843
w 65 -64 -47 0.122284
w 66 65 48 0
w 66 65 -48 1
w 66 -65 48 0
w 66 -65 -48 0
w 67 66 49 0.78375
w 67 66 -49 0.627034
w 67 -66 49 0.474103
w 67 -66 -49 0.816238
w 68 67 50 0
w 68 67 -50 0
w 68 -67 50 1
w 68 -67 -50 1
w 69 68 51 0.586014
w 69 68 -51 0.935901
w 69 -68 51 0.401659
w 69 -68 -51 0.882004
w 70 69 52 0.559511
w 70 69 -52 0.85665
w 70 -69 52 0.0315265
w 70 -69 -52 0.523481
w 71 70 53 0.669259
w 71 70 -53 0.271381
w 71 -70 53 0.325131
w 71 -70 -53 0.131102
w 72 71 54 1
w 72 71 -54 1
w 72 -71 54 0
w 72 -71 -54 1
w 73 55 0.490406
w 73 -55 0.379754
w 74 73 56 0
w 74 73 -56 1
w 74 -73 56 1
w 74 -73 -56 0
w 75 74 57 0
w 75 74 -57 0
w 75 -74 57 1
w 75 -74 -57 0
w 76 75 58 0.506048
w 76 75 -58 0.910529
w 76 -75 58 0.81193
w 76 -75 -58 0.0655589
w 77 76 59 0.843457
w 77 76 -59 0.589039
w 77 -76 59 0.642622
w 77 -76 -59 0.512716
w 78 77 60 0.967753
w 78 77 -60 0.643818
w 78 -77 60 0.254085
w 78 -77 -60 0.58585
w 79 78 61 0.984358
w 79 78 -61 0.181854
w 79 -78 61 0.527461
w 79 -78 -61 0.474764
w 80 79 62 0.885333
w 80 79 -62 0.439273
w 80 -79 62 0.7576
w 80 -79 -62 0.265542
w 81 80 63 1
w 81 80 -63 0
w 81 -80 63 0
w 81 -80 -63 0
w 82 81 64 0.996779
w 82 81 -64 0.50236
w 82 -81 64 0.647106
w 82 -81 -64 0.808709
w 83 82 65 0.414285
w 83 82 -65 0.652166
w 83 -82 65 0.156958
w 83 -82 -65 0.056907
w 84 83 66 1
w 84 83 -66 0
w 84 -83 66 0
w 84 -83 -66 0
w 85 84 67 0.255821
w 85 84 -67 0.792364
w 85 -84 67 0.132785
w 85 -84 -67 0.730585
w 86 85 68 0
w 86 85 -68 1
w 86 -85 68 1
w 86 -85 -68 1
w 87 86 69 1
w 87 86 -69 0
w 87 -86 69 1
w 87 -86 -69 0
w 88 87 70 1
w 88 87 -70 1
w 88 -87 70 0
w 88 -87 -70 1
w 89 88 71 0.798048
w 89 88 -71 0.227043
w 89 -88 71 0.846589
w 89 -88 -71 0.96293
w 90 89 72 0
w 90 89 -72 0
w 90 -89 72 1
w 90 -89 -72 1
w 91 73 1
w 91 -73 0
w 92 91 74 0
w 92 91 -74 1
w 92 -91 74 0
w 92 -91 -74 1
w 93 92 75 0.739667
w 93 92 -75 0.811518
w 93 -92 75 0.935404
w 93 -92 -75 0.743162
w 94 93 76 0.275799
w 94 93 -76 0.742969
w 94 -93 76 0.531521
w 94 -93 -76 0.612972
w 95 94 77 1
w 95 94 -77 1
w 95 -94 77 0
w 95 -94 -77 0
w 96 95 78 0.542262
w 96 95 -78 0.54319
w 96 -95 78 0.519833
w 96 -95 -78 0.786682
w 97 96 79 1
w 97 96 -79 0
w 97 -96 79 1
w 97 -96 -79 1
w 98 97 80 0
w 98 97 -80 1
w 98 -97 80 1
w 98 -97 -80 0
w 99 98 81 0.248707
w 99 98 -81 0.538084
w 99 -98 81 0.517531
w 99 -98 -81 0.184111
w 100 99 82 1
w 100 99 -82 1
w 100 -99 82 0
w 100 -99 -82 1
w 101 100 83 1
w 101 100 -83 1
w 101 -100 83 0
w 101 -100 -83 1
w 102 101 84 0
w 102 101 -84 1
w 102 -101 84 1
w 102 -101 -84 1
w 103 102 85 0.41343
w 103 102 -85 0.199936
w 103 -102 85 0.216079
w 103 -102 -85 0.309629
w 104 103 86 0.29035
w 104 103 -86 0.47995
w 104 -103 86 0.0465094
w 104 -103 -86 0.86691
w 105 104 87 0
w 105 104 -87 1
w 105 -104 87 0
w 105 -104 -87 0
w 106 105 88 1
w 106 105 -88 1
w 106 -105 88 0
w 106 -105 -88 1
w 107 106 89 0
w 107 106 -89 1
w 107 -106 89 0
w 107 -106 -89 0
w 108 107 90 0.658102
w 108 107 -90 0.0528984
w 108 -107 90 0.102662
w 108 -107 -90 0.657093
w 109 91 0.0161746
w 109 -91 0.0705234
w 110 109 92 0
w 110 109 -92 0
w 110 -109 92 1
w 110 -109 -92 0
w 111 110 93 0.0761704
w 111 110 -93 0.389513
w 111 -110 93 0.13847
w 111 -110 -93 0.828693
w 112 111 94 0.954921
w 112 111 -94 0.0987472
w 112 -111 94 0.804858
w 112 -111 -94 0.0526188
w 113 112 95 0.564496
w 113 112 -95 0.174532
w 113 -112 95 0.132661
w 113 -112 -95 0.397017
w 114 113 96 0.334961
w 114 113 -96 0.0612756
w 114 -113 96 0.541625
w 114 -113 -96 0.993063
w 115 114 97 0
w 115 114 -97 0
w 115 -114 97 1
w 115 -114 -97 0
w 116 115 98 0
w 116 115 -98 0
w 116 -115 98 1
w 116 -115 -98 0
w 117 116 99 0.342685
w 117 116 -99 0.804831
w 117 -116 99 0.0994032
w 117 -116 -99 0.171378
w 118 117 100 0
w 118 117 -100 0
w 118 -117 100 1
w 118 -117 -100 0
w 119 118 101 0.679315
w 119 118 -101 0.281475
w 119 -118 101 0.0923496
w 119 -118 -101 0.0763323
w 120 119 102 0.427311
w 120 119 -102 0.137608
w 120 -119 102 0.388894
w 120 -119 -102 0.420373
w 121 120 103 1
w 121 120 -103 0
w 121 -120 103 1
w 121 -120 -103 1
w 122 121 104 0.564181
w 122 121 -104 0.586358
w 122 -121 104 0.892039
w 122 -121 -104 0.830696
w 123 122 105 1
w 123 122 -105 0
w 123 -122 105 0
w 123 -122 -105 0
w 124 123 106 0
w 124 123 -106 0
w 124 -123 106 1
w 124 -123 -106 1
w 125 124 107 1
w 125 124 -107 1
w 125 -124 107 1
w 125 -124 -107 0
w 126 125 108 1
w 126 125 -108 0
w 126 -125 108 0
w 126 -125 -108 1
w 127 109 0
w 127 -109 1
w 128 127 110 0.703653
w 128 127 -110 0.358106
w 128 -127 110 0.376344
w 128 -127 -110 0.267835
w 129 128 111 0.268383
w 129 128 -111 0.0985305
w 129 -128 111 0.946141
w 129 -128 -111 0.121356
w 130 129 112 1
w 130 129 -112 0
w 130 -129 112 0
w 130 -129 -112 1
w 131 130 113 1
w 131 130 -113 1
w 131 -130 113 0
w 131 -130 -113 0
w 132 131 114 1
w 132 131 -114 0
w 132 -131 114 1
w 132 -131 -114 1
w 133 132 115 0.122491
w 133 132 -115 0.462862
w 133 -132 115 0.0818911
w 133 -132 -115 0.498817
w 134 133 116 1
w 134 133 -116 0
w 134 -133 116 1
w 134 -133 -116 1
w 135 134 117 0
w 135 134 -117 0
w 135 -134 117 0
w 135 -134 -117 1
w 136 135 118 1
w 136 135 -118 0
w 136 -135 118 0
w 136 -135 -118 1
w 137 136 119 0.587273
w 137 136 -119 0.688973
w 137 -136 119 0.0982117
w 137 -136 -119 0.781349
w 138 137 120 1
w 138 137 -120 0
w 138 -137 120 0
w 138 -137 -120 0
w 139 138 121 1
w 139 138 -121 1
w 139 -138 121 0
w 139 -138 -121 1
w 140 139 122 0.792309
w 140 139 -122 0.284354
w 140 -139 122 0.930948
w 140 -139 -122 0.277739
w 141 140 123 0
w 141 140 -123 1
w 141 -140 123 1
w 141 -140 -123 0
w 142 141 124 1
w 142 141 -124 1
w 142 -141 124 0
w 142 -141 -124 0
w 143 142 125 0
w 143 142 -125 0
w 143 -142 125 0
w 143 -142 -125 1
w 144 143 126 0.452326
w 144 143 -126 0.417591
w 144 -143 126 0.318592
w 144 -143 -126 0.420478
w 145 127 0.520715
w 145 -127 0.955914
w 146 145 128 0.185699
w 146 145 -128 0.573242
w 146 -145 128 0.4829
w 146 -145 -128 0.978008
w 147 146 129 0.413848
w 147 146 -129 0.255747
w 147 -146 129 0.185321
w 147 -146 -129 0.815101
w 148 147 130 0.824799
w 148 147 -130 0.785189
w 148 -147 130 0.0470466
w 148 -147 -130 0.897386
w 149 148 131 0.259399
w 149 148 -131 0.476814
w 149 -148 131 0.864276
w 149 -148 -131 0.469555
w 150 149 132 0.821501
w 150 149 -132 0.777923
w 150 -149 132 0.591564
w 150 -149 -132 0.273826
w 151 150 133 1
w 151 150 -133 0
w 151 -150 133 0
w 151 -150 -133 0
w 152 151 134 1
w 152 151 -134 0
w 152 -151 134 0
w 152 -151 -134 1
w 153 152 135 1
w 153 152 -135 0
w 153 -152 135 1
w 153 -152 -135 1
w 154 153 136 0
w 154 153 -136 0
w 154 -153 136 1
w 154 -153 -136 1
w 155 154 137 1
w 155 154 -137 1
w 155 -154 137 0
w 155 -154 -137 0
w 156 155 138 0
w 156 155 -138 1
w 156 -155 138 1
w 156 -155 -138 1
w 157 156 139 1
w 157 156 -139 0
w 157 -156 139 1
w 157 -156 -139 0
w 158 157 140 0.0953447
w 158 157 -140 0.715707
w 158 -157 140 0.252633
w 158 -157 -140 0.176402
w 159 158 141 0
w 159 158 -141 0
w 159 -158 141 1
w 159 -158 -141 1
w 160 159 142 0.245429
w 160 159 -142 0.777414
w 160 -159 142 0.522524
w 160 -159 -142 0.813186
w 161 160 143 0.987902
w 161 160 -143 0.24522
w 161 -160 143 0.487268
w 161 -160 -143 0.0967949
w 162 161 144 0
w 162 161 -144 0
w 162 -161 144 1
w 162 -161 -144 1
w 163 145 0
w 163 -145 1
w 164 163 146 0.449349
w 164 163 -146 0.119664
w 164 -163 146 0.459563
w 164 -163 -146 0.107404
w 165 164 147 1
w 165 164 -147 1
w 165 -164 147 1
w 165 -164 -147 0
w 166 165 148 0.536116
w 166 165 -148 0.379659
w 166 -165 148 0.368152
w 166 -165 -148 0.781545
w 167 166 149 1
w 167 166 -149 0
w 167 -166 149 1
w 167 -166 -149 0
w 168 167 150 0.541904
w 168 167 -150 0.975373
w 168 -167 150 0.338704
w 168 -167 -150 0.3968
w 169 168 151 0.364819
w 169 168 -151 0.814836
w 169 -168 151 0.18049
w 169 -168 -151 0.612599
w 170 169 152 0.629839
w 170 169 -152 0.732262
w 170 -169 152 0.97585
w 170 -169 -152 0.737243
w 171 170 153 0.15112
w 171 170 -153 0.0972804
w 171 -170 153 0.338681
w 171 -170 -153 0.413541
w 172 171 154 0.172873
w 172 171 -154 0.949657
w 172 -171 154 0.939935
w 172 -171 -154 0.541025
w 173 172 155 0.0970078
w 173 172 -155 0.431701
w 173 -172 155 0.325932
w 173 -172 -155 0.151644
w 174 173 156 0
w 174 173 -156 1
w 174 -173 156 0
w 174 -173 -156 0
w 175 174 157 0
w 175 174 -157 0
w 175 -174 157 1
w 175 -174 -157 0
w 176 175 158 0
w 176 175 -158 1
w 176 -175 158 0
w 176 -175 -158 1
w 177 176 159 0.161536
w 177 176 -159 0.548443
w 177 -176 159 0.703131
w 177 -176 -159 0.500217
w 178 177 160 0.263407
w 178 177 -160 0.67309
w 178 -177 160 0.911641
w 178 -177 -160 0.203342
w 179 178 161 1
w 179 178 -161 1
w 179 -178 161 1
w 179 -178 -161 0
w 180 179 162 1
w 180 179 -162 0
w 180 -179 162 1
w 180 -179 -162 1
w 181 163 0.235891
w 181 -163 0.300028
w 182 181 164 0.141076
w 182 181 -164 0.538797
w 182 -181 164 0.99065
w 182 -181 -164 0.562549
w 183 182 165 1
w 183 182 -165 0
w 183 -182 165 1
w 183 -182 -165 0
w 184 183 166 0.716386
w 184 183 -166 0.866668
w 184 -183 166 0.470299
w 184 -183 -166 0.979793
w 185 184 167 0.38194
w 185 184 -167 0.183136
w 185 -184 167 0.753873
w 185 -184 -167 0.0247818
w 186 185 168 1
w 186 185 -168 1
w 186 -185 168 0
w 186 -185 -168 0
w 187 186 169 1
w 187 186 -169 0
w 187 -186 169 0
w 187 -186 -169 0
w 188 187 170 0.2761
w 188 187 -170 0.457991
w 188 -187 170 0.436362
w 188 -187 -170 0.26675
w 189 188 171 1
w 189 188 -171 1
w 189 -188 171 1
w 189 -188 -171 0
w 190 189 172 0.488725
w 190 189 -172 0.573407
w 190 -189 172 0.704783
w 190 -189 -172 0.959024
w 191 190 173 0.244541
w 191 190 -173 0.340964
w 191 -190 173 0.736336
w 191 -190 -173 0.998414
w 192 191 174 1
w 192 191 -174 1
w 192 -191 174 0
w 192 -191 -174 1
w 193 192 175 0.487513
w 193 192 -175 0.236325
w 193 -192 175 0.351429
w 193 -192 -175 0.254967
w 194 193 176 0.248995
w 194 193 -176 0.531067
w 194 -193 176 0.0112303
w 194 -193 -176 0.685357
w 195 194 177 0.0317694
w 195 194 -177 0.529124
w 195 -194 177 0.269483
w 195 -194 -177 0.0121801
w 196 195 178 0
w 196 195 -178 1
w 196 -195 178 1
w 196 -195 -178 1
w 197 196 179 0
w 197 196 -179 1
w 197 -196 179 1
w 197 -196 -179 0
w 198 197 180 0
w 198 197 -180 1
w 198 -197 180 1
w 198 -197 -180 1
w 199 181 1
w 199 -181 0
w 200 199 182 0.558763
w 200 199 -182 0.268421
w 200 -199 182 0.413779
w 200 -199 -182 0.807758
w 201 200 183 0.425009
w 201 200 -183 0.493116
w 201 -200 183 0.597306
w 201 -200 -183 0.456779
w 202 201 184 1
w 202 201 -184 0
w 202 -201 184 1
w 202 -201 -184 1
w 203 202 185 0.367938
w 203 202 -185 0.786768
w 203 -202 185 0.429794
w 203 -202 -185 0.880691
w 204 203 186 0.230687
w 204 203 -186 0.12978
w 204 -203 186 0.899028
w 204 -203 -186 0.397327
w 205 204 187 0.35247
w 205 204 -187 0.923267
w 205 -204 187 0.222905
w 205 -204 -187 0.559804
w 206 205 188 0.0834446
w 206 205 -188 0.118568
w 206 -205 188 0.205142
w 206 -205 -188 0.497224
w 207 206 189 0.00462994
w 207 206 -189 0.922233
w 207 -206 189 0.419441
w 207 -206 -189 0.601936
w 208 207 190 1
w 208 207 -190 0
w 208 -207 190 0
w 208 -207 -190 0
w 209 208 191 1
w 209 208 -191 0
w 209 -208 191 1
w 209 -208 -191 0
w 210 209 192 1
w 210 209 -192 0
w 210 -209 192 1
w 210 -209 -192 1
w 211 210 193 0.325068
w 211 210 -193 0.798909
w 211 -210 193 0.0500712
w 211 -210 -193 0.884872
w 212 211 194 0.133516
w 212 211 -194 0.00343955
w 212 -211 194 0.940772
w 212 -211 -194 0.630739
w 213 212 195 0.945402
w 213 212 -195 0.552972
w 213 -212 195 0.349207
w 213 -212 -195 0.547338
w 214 213 196 0.790888
w 214 213 -196 0.0160613
w 214 -213 196 0.779954
w 214 -213 -196 0.640954
w 215 214 197 1
w 215 214 -197 1
w 215 -214 197 1
w 215 -214 -197 0
w 216 215 198 0.762619
w 216 215 -198 0.323732
w 216 -215 198 0.186125
w 216 -215 -198 0.735217
w 217 199 1
w 217 -199 0
w 218 217 200 0
w 218 217 -200 1
w 218 -217 200 1
w 218 -217 -200 0
w 219 218 201 1
w 219 218 -201 0
w 219 -218 201 1
w 219 -218 -201 1
w 220 219 202 0
w 220 219 -202 0
w 220 -219 202 0
w 220 -219 -202 1
w 221 220 203 0
w 221 220 -203 1
w 221 -220 203 1
w 221 -220 -203 0
w 222 221 204 0.331709
w 222 221 -204 0.535731
w 222 -221 204 0.476018
w 222 -221 -204 0.0943281
w 223 222 205 0.662143
w 223 222 -205 0.829545
w 223 -222 205 0.0588375
w 223 -222 -205 0.675434
w 224 223 206 0.0571214
w 224 223 -206 0.738796
w 224 -223 206 0.834986
w 224 -223 -206 0.791036
w 225 224 207 0.783582
w 225 224 -207 0.465722
w 225 -224 207 0.763292
w 225 -224 -207 0.661944
w 226 225 208 0
w 226 225 -208 0
w 226 -225 208 0
w 226 -225 -208 1
w 227 226 209 1
w 227 226 -209 0
w 227 -226 209 0
w 227 -226 -209 1
w 228 227 210 1
w 228 227 -210 1
w 228 -227 210 1
w 228 -227 -210 0
w 229 228 211 0.223905
w 229 228 -211 0.334966
w 229 -228 211 0.693327
w 229 -228 -211 0.899339
w 230 229 212 1
w 230 229 -212 0
w 230 -229 212 0
w 230 -229 -212 0
w 231 230 213 0.843364
w 231 230 -213 0.00720629
w 231 -230 213 0.337101
w 231 -230 -213 0.505307
w 232 231 214 0
w 232 231 -214 1
w 232 -231 214 0
w 232 -231 -214 0
w 233 232 215 0
w 233 232 -215 1
w 233 -232 215 1
w 233 -232 -215 0
w 234 233 216 0.95591
w 234 233 -216 0.273456
w 234 -233 216 0.500739
w 234 -233 -216 0.517673
w 235 217 0.135228
w 235 -217 0.741578
w 236 235 218 1
w 236 235 -218 0
w 236 -235 218 1
w 236 -235 -218 0
w 237 236 219 1
w 237 236 -219 0
w 237 -236 219 1
w 237 -236 -219 0
w 238 237 220 1
w 238 237 -220 1
w 238 -237 220 0
w 238 -237 -220 1
w 239 238 221 0
w 239 238 -221 1
w 239 -238 221 1
w 239 -238 -221 0
w 240 239 222 0
w 240 239 -222 1
w 240 -239 222 1
w 240 -239 -222 0
w 241 240 223 1
w 241 240 -223 1
w 241 -240 223 0
w 241 -240 -223 1
w 242 241 224 0.378483
w 242 241 -224 0.285035
w 242 -241 224 0.170941
w 242 -241 -224 0.717121
w 243 242 225 0.449993
w 243 242 -225 0.11554
w 243 -242 225 0.984527
w 243 -242 -225 0.302855
w 244 243 226 1
w 244 243 -226 0
w 244 -243 226 0
w 244 -243 -226 1
w 245 244 227 1
w 245 244 -227 1
w 245 -244 227 0
w 245 -244 -227 0
w 246 245 228 1
w 246 245 -228 0
w 246 -245 228 1
w 246 -245 -228 1
w 247 246 229 1
w 247 246 -229 0
w 247 -246 229 1
w 247 -246 -229 1
w 248 247 230 1
w 248 247 -230 1
w 248 -247 230 1
w 248 -247 -230 0
w 249 248 231 1
w 249 248 -231 1
w 249 -248 231 1
w 249 -248 -231 0
w 250 249 232 0.781021
w 250 249 -232 0.711013
w 250 -249 232 0.0117375
w 250 -249 -232 0.885435
w 251 250 233 1
w 251 250 -233 1
w 251 -250 233 0
w 251 -250 -233 0
w 252 251 234 0.193685
w 252 251 -234 0.814597
w 252 -251 234 0.828664
w 252 -251 -234 0.655835
w 253 235 0.105323
w 253 -235 0.603749
w 254 253 236 0.170428
w 254 253 -236 0.816303
w 254 -253 236 0.975959
w 254 -253 -236 0.765557
w 255 254 237 0
w 255 254 -237 0
w 255 -254 237 1
w 255 -254 -237 0
w 256 255 238 0
w 256 255 -238 0
w 256 -255 238 1
w 256 -255 -238 0
w 257 256 239 1
w 257 256 -239 0
w 257 -256 239 0
w 257 -256 -239 1
w 258 257 240 0.401498
w 258 257 -240 0.760191
w 258 -257 240 0.831731
w 258 -257 -240 0.216094
w 259 258 241 0.487566
w 259 258 -241 0.71815
w 259 -258 241 0.694178
w 259 -258 -241 0.091315
w 260 259 242 0
w 260 259 -242 0
w 260 -259 242 0
w 260 -259 -242 1
w 261 260 243 1
w 261 260 -243 1
w 261 -260 243 1
w 261 -260 -243 0
w 262 261 244 1
w 262 261 -244 0
w 262 -261 244 1
w 262 -261 -244 1
w 263 262 245 1
w 263 262 -245 0
w 263 -262 245 1
w 263 -262 -245 0
w 264 263 246 0
w 264 263 -246 0
w 264 -263 246 1
w 264 -263 -246 0
w 265 264 247 0
w 265 264 -247 0
w 265 -264 247 0
w 265 -264 -247 1
w 266 265 248 0.511489
w 266 265 -248 0.677816
w 266 -265 248 0.370927
w 266 -265 -248 0.826447
w 267 266 249 0.532716
w 267 266 -249 0.856905
w 267 -266 249 0.880389
w 267 -266 -249 0.442194
w 268 267 250 1
w 268 267 -250 0
w 268 -267 250 1
w 268 -267 -250 1
w 269 268 251 0
w 269 268 -251 1
w 269 -268 251 1
w 269 -268 -251 0
w 270 269 252 0.290772
w 270 269 -252 0.438023
w 270 -269 252 0.725618
w 270 -269 -252 0.816644
w 271 253 0.238174
w 271 -253 0.0606665
w 272 271 254 1
w 272 271 -254 1
w 272 -271 254 0
w 272 -271 -254 0
w 273 272 255 1
w 273 272 -255 0
w 273 -272 255 0
w 273 -272 -255 0
w 274 273 256 0
w 274 273 -256 1
w 274 -273 256 1
w 274 -273 -256 1
w 275 274 257 1
w 275 274 -257 0
w 275 -274 257 1
w 275 -274 -257 1
w 276 275 258 0
w 276 275 -258 0
w 276 -275 258 1
w 276 -275 -258 1
w 277 276 259 1
w 277 276 -259 0
w 277 -276 259 0
w 277 -276 -259 0
w 278 277 260 1
w 278 277 -260 0
w 278 -277 260 0
w 278 -277 -260 0
w 279 278 261 1
w 279 278 -261 0
w 279 -278 261 1
w 279 -278 -261 0
w 280 279 262 1
w 280 279 -262 1
w 280 -279 262 0
w 280 -279 -262 1
w 281 280 263 0.224678
w 281 280 -263 0.633864
w 281 -280 263 0.76338
w 281 -280 -263 0.476038
w 282 281 264 0.80011
w 282 281 -264 0.428026
w 282 -281 264 0.434146
w 282 -281 -264 0.274862
w 283 282 265 0
w 283 282 -265 1
w 283 -282 265 0
w 283 -282 -265 0
w 284 283 266 0.779238
w 284 283 -266 0.175598
w 284 -283 266 0.788398
w 284 -283 -266 0.890596
w 285 284 267 0
w 285 284 -267 0
w 285 -284 267 1
w 285 -284 -267 0
w 286 285 268 0.0204859
w 286 285 -268 0.959453
w 286 -285 268 0.901829
w 286 -285 -268 0.501175
w 287 286 269 0
w 287 286 -269 1
w 287 -286 269 1
w 287 -286 -269 0
w 288 287 270 1
w 288 287 -270 1
w 288 -287 270 0
w 288 -287 -270 1
w 289 271 0
w 289 -271 1
w 290 289 272 1
w 290 289 -272 0
w 290 -289 272 0
w 290 -289 -272 0
w 291 290 273 0.467252
w 291 290 -273 0.430287
w 291 -290 273 0.426796
w 291 -290 -273 0.810716
w 292 291 274 0.608731
w 292 291 -274 0.142346
w 292 -291 274 0.454796
w 292 -291 -274 0.118891
w 293 292 275 1
w 293 292 -275 0
w 293 -292 275 1
w 293 -292 -275 1
w 294 293 276 0
w 294 293 -276 1
w 294 -293 276 0
w 294 -293 -276 1
w 295 294 277 0.767714
w 295 294 -277 0.221667
w 295 -294 277 0.805447
w 295 -294 -277 0.0794409
w 296 295 278 0.877947
w 296 295 -278 0.760787
w 296 -295 278 0.714177
w 296 -295 -278 0.169602
w 297 296 279 1
w 297 296 -279 0
w 297 -296 279 0
w 297 -296 -279 1
w 298 297 280 1
w 298 297 -280 1
w 298 -297 280 0
w 298 -297 -280 1
w 299 298 281 1
w 299 298 -281 1
w 299 -298 281 1
w 299 -298 -281 0
w 300 299 282 1
w 300 299 -282 1
w 300 -299 282 1
w 300 -299 -282 0
w 301 300 283 1
w 301 300 -283 0
w 301 -300 283 1
w 301 -300 -283 1
w 302 301 284 1
w 302 301 -284 0
w 302 -301 284 1
w 302 -301 -284 0
w 303 302 285 0
w 303 302 -285 0
w 303 -302 285 0
w 303 -302 -285 1
w 304 303 286 1
w 304 303 -286 1
w 304 -303 286 0
w 304 -303 -286 1
w 305 304 287 0.27997
w 305 304 -287 0.335188
w 305 -304 287 0.00353732
w 305 -304 -287 0.370182
w 306 305 288 0
w 306 305 -288 0
w 306 -305 288 0
w 306 -305 -288 1
w 307 289 1
w 307 -289 0
w 308 307 290 0.821043
w 308 307 -290 0.405801
w 308 -307 290 0.556551
w 308 -307 -290 0.0794441
w 309 308 291 0.716245
w 309 308 -291 0.740522
w 309 -308 291 0.23903
w 309 -308 -291 0.512792
w 310 309 292 0
w 310 309 -292 1
w 310 -309 292 1
w 310 -309 -292 1
w 311 310 293 0.139531
w 311 310 -293 0.872558
w 311 -310 293 0.177725
w 311 -310 -293 0.419501
w 312 311 294 0
w 312 311 -294 0
w 312 -311 294 1
w 312 -311 -294 0
w 313 312 295 0.367799
w 313 312 -295 0.199934
w 313 -312 295 0.391615
w 313 -312 -295 0.691228
w 314 313 296 0
w 314 313 -296 0
w 314 -313 296 0
w 314 -313 -296 1
w 315 314 297 0.131515
w 315 314 -297 0.23087
w 315 -314 297 0.332237
w 315 -314 -297 0.370546
w 316 315 298 0.566801
w 316 315 -298 0.828551
w 316 -315 298 0.500572
w 316 -315 -298 0.782769
w 317 316 299 0.0915146
w 317 316 -299 0.9223
w 317 -316 299 0.663994
w 317 -316 -299 0.269239
w 318 317 300 0
w 318 317 -300 0
w 318 -317 300 0
w 318 -317 -300 1
w 319 318 301 1
w 319 318 -301 0
w 319 -318 301 0
w 319 -318 -301 1
w 320 319 302 0
w 320 319 -302 1
w 320 -319 302 1
w 320 -319 -302 0
w 321 320 303 0.497296
w 321 320 -303 0.23614
w 321 -320 303 0.163969
w 321 -320 -303 0.829532
w 322 321 304 0.907631
w 322 321 -304 0.396333
w 322 -321 304 0.435237
w 322 -321 -304 0.408203
w 323 322 305 0
w 323 322 -305 1
w 323 -322 305 1
w 323 -322 -305 1
w 324 323 306 1
w 324 323 -306 0
w 324 -323 306 0
w 324 -323 -306 0